17	4
9	8	10	10	
0	0	0	0	0	3	2	3	4	
7	7	0	0	0	3	9	12	17	
3	0	8	0	0	3	5	10	11	
10	0	0	0	2	3	6	14	17	
2	0	5	0	0	3	7	9	17	
150	0	0	0	4	2	7	8	
200	0	0	1	0	3	12	15	16	
175	0	0	0	1	2	10	12	
25	3	0	0	0	3	14	17	17	
150	0	5	0	0	3	15	16	17	
225	0	2	0	0	3	13	17	17	
75	0	3	0	0	1	17	
4	0	0	10	0	3	14	16	17	
1	0	0	3	0	1	17	
7	9	0	0	0	3	17	17	17	
8	0	0	0	5	2	17	17	
0	0	0	0	0	0	
